NAME : B-n34-k5
COMMENT : (Augerat et al, No of trucks: 5, Optimal value: 788)
TYPE : CVRP
DIMENSION : 34
EDGE_WEIGHT_TYPE : EUC_2D 
CAPACITY : 100
NODE_COORD_SECTION 
 1 28 57
 2 76 46
 3 67 5
 4 84 22
 5 73 6
 6 67 72
 7 68 74
 8 68 6
 9 76 7
 10 91 30
 11 80 0
 12 0 25
 13 73 13
 14 76 81
 15 92 30
 16 69 80
 17 90 30
 18 71 77
 19 83 47
 20 79 47
 21 74 6
 22 68 6
 23 72 0
 24 80 0
 25 91 25
 26 71 73
 27 78 10
 28 85 24
 29 75 80
 30 87 24
 31 0 7
 32 71 78
 33 74 0
 34 76 0
DEMAND_SECTION 
1 0 
2 6 
3 12 
4 2 
5 24 
6 3 
7 18 
8 21 
9 14 
10 69 
11 1 
12 13 
13 2 
14 2 
15 7 
16 7 
17 1 
18 23 
19 19 
20 14 
21 8 
22 11 
23 4 
24 8 
25 24 
26 12 
27 9 
28 4 
29 19 
30 15 
31 2 
32 2 
33 15 
34 66 
DEPOT_SECTION 
 1  
 -1  
EOF 
